results_rootrelaxation/bin012_090_046.srr.sol
solution status: optimal solution found
objective value:                                   31
_var105_                           0.0599999999999987 	(obj:5)
_var109_                            0.419999999999999 	(obj:4)
_var149_                                         0.04 	(obj:6)
_var726_                                          0.2 	(obj:3)
_var733_                            0.580000000000001 	(obj:2)
_var734_                            0.140000000000001 	(obj:2)
_var739_                            0.220000000000002 	(obj:2)
_var740_                                         0.52 	(obj:4)
_var741_                                         0.46 	(obj:3)
_var751_                                         0.24 	(obj:4)
_var752_                                          0.5 	(obj:3)
_var753_                            0.260000000000001 	(obj:2)
_var759_                            0.180000000000001 	(obj:3)
_var775_                            0.399999999999999 	(obj:2)
_var787_                                         0.54 	(obj:5)
_var792_                           0.0799999999999996 	(obj:3)
_var793_                                         0.44 	(obj:3)
_var798_                            0.120000000000001 	(obj:5)
_var800_                            0.739999999999999 	(obj:1)
_var801_                                         0.54 	(obj:2)
_var803_                                          0.2 	(obj:3)
_var805_                            0.600000000000001 	(obj:1)
_var815_                           0.0999999999999984 	(obj:3)
_var818_                           0.0400000000000005 	(obj:2)
_var820_                                          0.1 	(obj:5)
_var823_                                         0.12 	(obj:2)
_var828_                           0.0400000000000003 	(obj:4)
_var833_                                         0.12 	(obj:2)
_var834_                           0.0200000000000001 	(obj:4)
_var835_                                         0.18 	(obj:3)
_var838_                            0.139999999999999 	(obj:2)
_var839_                            0.179999999999999 	(obj:5)
_var842_                                          0.1 	(obj:5)
_var843_                                         0.22 	(obj:3)
_var846_                           0.0400000000000005 	(obj:3)
_var847_                                         0.28 	(obj:3)
_var853_                           0.0400000000000004 	(obj:5)
_var859_                            0.460000000000002 	(obj:3)
_var860_                           0.0399999999999987 	(obj:2)
_var863_                            0.100000000000001 	(obj:3)
_var868_                                         0.32 	(obj:4)
_var869_                           0.0599999999999997 	(obj:3)
_var874_                           0.0600000000000005 	(obj:2)
_var884_                            0.179999999999999 	(obj:2)
_var886_                            0.199999999999999 	(obj:2)
_var888_                            0.299999999999999 	(obj:2)
_var889_                           0.0399999999999998 	(obj:3)
_var893_                           0.0200000000000008 	(obj:5)
_var899_                           0.0200000000000004 	(obj:4)
